NAME: berlin52
TYPE: TOUR
DIMENSION: 52
TOUR_SECTION
35
36
39
40
38
24
48
46
5
6
4
25
12
28
27
26
47
13
14
52
51
11
15
43
33
37
49
32
45
19
41
8
10
9
1
22
31
21
42
7
2
18
3
17
34
44
16
50
29
20
23
30
EOF
